Optimal - objective value -8.95200000
      0 z1                     1                  -4.185
      1 z2                     0                  -1.341
      2 z3                     1                  -2.529
      3 z4                     0                  -1.161
      4 x2                     0                   -0.93
      5 x3                     0                  -0.843
      6 x4                     1                  -2.238
      7 x5                     0                  -2.516
      8 x1                     0                       0
